cantSalas = 1;
cantRamos = 15;
bloques = [1, 1, 1, 2, 1, 1, 2, 2, 1, 2, 1, 1, 1, 2, 2];
capacidad = [51];
prioridad = [6, 1, 3, 3, 1, 8, 5, 3, 2, 4, 10, 3, 2, 3, 1];
interes = [40, 44, 64, 75, 62, 45, 53, 75, 57, 66, 50, 58, 42, 76, 56];
disponibilidad = array2d(1..cantRamos, 1..35, [
  true, true, true, true, false, true, true, true, false, false, true, true, true, false, true, false, true, true, false, true, true, true, true, true, true, true, true, true, false, false, true, true, true, false, true,
  true, false, true, false, false, false, false, true, false, false, false, false, true, false, false, true, false, false, true, true, true, false, true, false, false, true, false, true, true, false, true, true, false, true, false,
  false, true, true, true, false, true, true, true, true, true, true, false, false, true, true, false, true, true, false, true, true, true, false, true, true, true, true, true, false, false, true, true, true, true, true,
  true, false, true, true, true, true, true, true, false, false, true, true, true, false, true, true, true, true, false, true, true, true, true, true, true, true, true, false, true, true, false, true, true, true, true,
  true, true, true, false, false, false, true, true, false, true, true, true, true, true, true, true, false, true, true, false, true, false, true, false, false, true, true, true, false, false, true, true, true, false, false,
  false, true, true, true, false, false, true, true, false, false, true, true, false, true, true, false, true, false, true, true, true, false, false, true, true, false, false, true, false, false, true, true, true, true, true,
  false, true, true, true, false, true, true, true, true, false, false, false, true, true, false, true, true, false, true, true, true, true, true, true, true, false, true, true, false, false, true, true, false, true, true,
  true, false, false, false, true, true, true, false, false, false, false, false, false, false, true, true, false, false, false, false, false, false, true, false, false, false, true, true, false, false, true, true, true, true, true,
  true, true, true, true, true, false, false, true, true, true, true, true, true, true, true, false, true, false, true, false, true, false, false, false, true, true, true, true, false, true, true, true, true, true, true,
  true, true, true, true, true, true, true, true, true, false, true, true, false, true, true, true, false, false, true, false, true, false, false, true, true, false, true, true, true, true, true, true, true, false, true,
  true, true, false, true, true, true, true, true, true, true, true, true, true, true, false, true, true, false, false, false, true, false, true, true, false, true, true, true, true, true, true, true, false, true, true,
  true, false, true, true, true, false, true, true, false, true, false, false, false, false, true, true, true, false, true, true, false, true, false, false, true, true, false, true, false, true, true, true, true, true, false,
  true, true, false, false, true, false, false, true, true, true, true, true, false, true, false, false, false, false, true, false, false, false, false, true, true, false, false, true, false, false, false, false, true, false, false,
  false, true, false, true, false, false, true, false, false, false, true, false, false, true, true, false, false, true, true, false, false, true, false, true, false, true, true, true, false, true, true, false, true, true, true,
  false, true, true, true, true, true, false, true, true, true, true, false, true, true, true, true, false, false, true, false, true, true, true, true, true, true, false, true, true, false, false, false, false, true, true,
]);
